(set-logic QF_SLIA)
(declare-fun var0 () String)
(assert (not (str.in_re var0 (re.++ ((_ re.loop 20 568) (re.++ (re.union (str.to_re "h0{") (re.union (str.to_re "b") (re.union (str.to_re "@X") (str.to_re ")H~")))) (re.++ (re.union (str.to_re ")") (re.union (str.to_re "ITH") (re.union (str.to_re "-") (str.to_re "Bii")))) (re.++ (re.union (str.to_re "B!Y") (re.union (str.to_re "YCB") (re.union (str.to_re "%qD") (str.to_re "93u")))) (re.union (str.to_re "xHZ") (re.union (str.to_re "4") (re.union (str.to_re "Y") (str.to_re "2")))))))) (re.++ ((_ re.loop 18 451) (re.++ (re.union (str.to_re "~4I") (re.union (str.to_re "m") (re.union (str.to_re ",") (str.to_re "N")))) (re.++ (re.union (str.to_re "D\u0022Y") (re.union (str.to_re "<qR") (re.union (str.to_re "n") (str.to_re "C")))) (re.++ (re.union (str.to_re "4") (re.union (str.to_re "v") (re.union (str.to_re "Z,l") (str.to_re "^")))) (re.union (str.to_re "@") (re.union (str.to_re ",P") (re.union (str.to_re "O") (str.to_re "LK/")))))))) (re.++ ((_ re.loop 12 691) (re.++ (re.union (str.to_re "18") (re.union (str.to_re ">>") (re.union (str.to_re "/!x") (str.to_re "f")))) (re.++ (re.union (str.to_re "wZW") (re.union (str.to_re "H") (re.union (str.to_re "LE") (str.to_re "<")))) (re.++ (re.union (str.to_re "}&<") (re.union (str.to_re "f~") (re.union (str.to_re "6") (str.to_re "S")))) (re.union (str.to_re "n") (re.union (str.to_re "T`") (re.union (str.to_re "4M") (str.to_re "/")))))))) ((_ re.loop 9 302) (re.++ (re.union (str.to_re "G") (re.union (str.to_re "}") (re.union (str.to_re "rQ#") (str.to_re "]a")))) (re.++ (re.union (str.to_re "&?") (re.union (str.to_re "|") (re.union (str.to_re "Y") (str.to_re "X'v")))) (re.++ (re.union (str.to_re "]") (re.union (str.to_re "'o") (re.union (str.to_re "BR") (str.to_re "i")))) (re.union (str.to_re "OaX") (re.union (str.to_re "r") (re.union (str.to_re "0") (str.to_re "u;"))))))))))))))
(assert (not (str.in_re var0 (re.++ ((_ re.loop 11 55) (re.++ (re.union (str.to_re "]^") (re.union (str.to_re "hs1") (re.union (str.to_re ">") (str.to_re "v'*")))) (re.++ (re.union (str.to_re ",|") (re.union (str.to_re "HS~") (re.union (str.to_re "){") (str.to_re "-`")))) (re.++ (re.union (str.to_re ".") (re.union (str.to_re "76S") (re.union (str.to_re "&B") (str.to_re "bv")))) (re.union (str.to_re "-b#") (re.union (str.to_re "j") (re.union (str.to_re "\\") (str.to_re "C&/")))))))) (re.++ ((_ re.loop 16 827) (re.++ (re.union (str.to_re "RD") (re.union (str.to_re "}SV") (re.union (str.to_re "r") (str.to_re "nz")))) (re.++ (re.union (str.to_re "l") (re.union (str.to_re "f") (re.union (str.to_re "`_t") (str.to_re "%")))) (re.++ (re.union (str.to_re "3/u") (re.union (str.to_re "W") (re.union (str.to_re "GX$") (str.to_re "HB")))) (re.union (str.to_re "{F&") (re.union (str.to_re "%") (re.union (str.to_re "`:0") (str.to_re "f")))))))) (re.++ ((_ re.loop 6 96) (re.++ (re.union (str.to_re "W8") (re.union (str.to_re "&") (re.union (str.to_re "5") (str.to_re "Umm")))) (re.++ (re.union (str.to_re "SA") (re.union (str.to_re "j_") (re.union (str.to_re "&w)") (str.to_re "{PD")))) (re.++ (re.union (str.to_re "c") (re.union (str.to_re "[q") (re.union (str.to_re ":") (str.to_re "x)")))) (re.union (str.to_re "M") (re.union (str.to_re "/:") (re.union (str.to_re "7kW") (str.to_re "b")))))))) ((_ re.loop 6 168) (re.++ (re.union (str.to_re "uuE") (re.union (str.to_re "=OX") (re.union (str.to_re "9") (str.to_re "&Oz")))) (re.++ (re.union (str.to_re "87") (re.union (str.to_re "'F") (re.union (str.to_re "|~") (str.to_re "r")))) (re.++ (re.union (str.to_re "5:") (re.union (str.to_re "Q") (re.union (str.to_re "p") (str.to_re "f4")))) (re.union (str.to_re "{}$") (re.union (str.to_re "Psw") (re.union (str.to_re "Du@") (str.to_re "+"))))))))))))))
(assert (not (str.in_re var0 (re.++ (re.* re.allchar) (re.++ (re.union (str.to_re "<") (re.union (str.to_re ">") (re.union (str.to_re "'") (re.union (str.to_re "\u0022") (str.to_re "&"))))) (re.* re.allchar))))))
(assert (<= 50 (str.len var0)))
(check-sat)
(get-model)
